187 1076 10 0 1439
706 1578 2 307 408
2375 339 1 962 990
105 401 3 1358 1374
657 865 4 82 111
547 1052 3 1050 1068
99 1988 4 445 524
1130 1897 3 220 318
1916 1963 4 428 538
1046 1841 2 260 293
1499 752 2 432 494
